 vasp.5.3.3 18Dez12 (build Dec 28 2012 11:48:43) complex

 executed on             LinuxIFC date 2015.10.16  14:07:50

 INCAR:
 POTCAR:    PAW_PBE Si 05Jan2001
 POTCAR:    PAW_PBE Si 05Jan2001
   VRHFIN =Si: s2p2

   TITEL  = PAW_PBE Si 05Jan2001
   POMASS =   28.085; ZVAL   =    4.000    mass and valenz
   ENMAX  =  245.345; ENMIN  =  184.009 eV

  PAW_PBE Si 05Jan2001                  :

 POSCAR:  Si
  positions in direct lattice
 exchange correlation table for  LEXCH =       14
   RHO(1)=    0.500       N(1)  =     2000
   RHO(2)=  100.500       N(2)  =     4000

 ion  position               nearest neighbor table
   1  0.875  0.875  0.875-   5 2.36   6 2.36   7 2.36   8 2.36
   2  0.875  0.375  0.375-   5 2.36   6 2.36   7 2.36   8 2.36
   3  0.375  0.875  0.375-   5 2.36   6 2.36   7 2.36   8 2.36
   4  0.375  0.375  0.875-   5 2.36   6 2.36   7 2.36   8 2.36
   5  0.125  0.125  0.125-   1 2.36   2 2.36   3 2.36   4 2.36
   6  0.125  0.625  0.625-   1 2.36   2 2.36   3 2.36   4 2.36
   7  0.625  0.125  0.625-   1 2.36   2 2.36   3 2.36   4 2.36
   8  0.625  0.625  0.125-   1 2.36   2 2.36   3 2.36   4 2.36

  LATTYP: Found a simple cubic cell.
 ALAT       =     5.4500000000

  Lattice vectors:

 A1 = (   5.4500000000,   0.0000000000,   0.0000000000)
 A2 = (   0.0000000000,   5.4500000000,   0.0000000000)
 A3 = (   0.0000000000,   0.0000000000,   5.4500000000)

Analysis of symmetry for initial positions (statically):
 Subroutine PRICEL returns following result:

  LATTYP: Found a face centered cubic cell.
 ALAT       =     5.4500000000

[...]

   4 primitive cells build up your supercell.

 Routine SETGRP: Setting up the symmetry group for a
 simple cubic supercell.

 Subroutine GETGRP returns: Found 48 space group operations
 (whereof 12 operations were pure point group operations)
 out of a pool of 48 trial point group operations.

The static configuration has the point symmetry D_3d.
 The point group associated with its full space group is O_h .

Analysis of symmetry for dynamics (positions and initial velocities):
 Subroutine PRICEL returns following result:

  LATTYP: Found a face centered cubic cell.
 ALAT       =     5.4500000000

  Lattice vectors:

 A1 = (   2.7250000000,   2.7250000000,   0.0000000000)
 A2 = (   2.7250000000,   0.0000000000,  -2.7250000000)
 A3 = (   0.0000000000,   2.7250000000,  -2.7250000000)

   4 primitive cells build up your supercell.

 Routine SETGRP: Setting up the symmetry group for a
 simple cubic supercell.

 Subroutine GETGRP returns: Found 48 space group operations
 (whereof 12 operations were pure point group operations)
 out of a pool of 48 trial point group operations.

The dynamic configuration has the point symmetry D_3d.
 The point group associated with its full space group is O_h .

 irot  :   1
 isymop:   1   0   0
           0   1   0
           0   0   1

 gtrans:     0.0000000     0.0000000     0.0000000

 ptrans:     0.0000000     0.0000000     0.0000000
 rotmap:
 (   1->   1)  (   2->   2)  (   3->   3)  (   4->   4)  (   5->   5)
 (   6->   6)  (   7->   7)  (   8->   8)

[...]

 irot  :  48
 isymop:   0   0   1
          -1   0   0
           0   1   0

 gtrans:     0.2500000     0.5000000    -0.2500000

[...]

 ptrans:     0.0000000     0.5000000     0.5000000
 rotmap:
 (   1->   5)  (   2->   7)  (   3->   8)  (   4->   6)  (   5->   3)
 (   6->   1)  (   7->   2)  (   8->   4)

 KPOINTS: Automatic mesh

Automatic generation of k-mesh.
Space group operators:
 irot       det(A)        alpha          n_x          n_y          n_z        tau_x        tau_y        tau_z
    1     1.000000     0.000000     1.000000     0.000000     0.000000     0.000000     0.000000     0.000000
    2    -1.000000     0.000000     1.000000     0.000000     0.000000     0.000000     0.000000     0.000000
    3     1.000000   120.000000    -0.577350    -0.577350    -0.577350     0.000000     0.000000     0.000000
    4    -1.000000   120.000000    -0.577350    -0.577350    -0.577350     0.000000     0.000000     0.000000
    5     1.000000   120.000000     0.577350     0.577350     0.577350     0.000000     0.000000     0.000000
    6    -1.000000   120.000000     0.577350     0.577350     0.577350     0.000000     0.000000     0.000000
    7     1.000000   180.000000     0.000000    -0.707107     0.707107     0.000000     0.000000     0.000000
    8    -1.000000   180.000000     0.000000    -0.707107     0.707107     0.000000     0.000000     0.000000
    9     1.000000   180.000000     0.707107    -0.707107     0.000000     0.000000     0.000000     0.000000
   10    -1.000000   180.000000     0.707107    -0.707107     0.000000     0.000000     0.000000     0.000000
   11     1.000000   180.000000     0.707107     0.000000    -0.707107     0.000000     0.000000     0.000000
   12    -1.000000   180.000000     0.707107     0.000000    -0.707107     0.000000     0.000000     0.000000
   13     1.000000    90.000000     0.000000     0.000000    -1.000000     0.500000     0.250000    -0.250000
   14    -1.000000    90.000000     0.000000     0.000000    -1.000000     0.500000     0.250000    -0.250000
   15     1.000000   180.000000     0.000000     0.707107     0.707107     0.500000     0.250000    -0.250000
   16    -1.000000   180.000000     0.000000     0.707107     0.707107     0.500000     0.250000    -0.250000
   17     1.000000    90.000000     0.000000     1.000000     0.000000     0.500000     0.250000    -0.250000
   18    -1.000000    90.000000     0.000000     1.000000     0.000000     0.500000     0.250000    -0.250000
   19     1.000000   180.000000     0.000000     0.000000     1.000000     0.250000     0.250000     0.000000
   20    -1.000000   180.000000     0.000000     0.000000     1.000000     0.250000     0.250000     0.000000
   21     1.000000   120.000000    -0.577350     0.577350     0.577350     0.250000     0.250000     0.000000
   22    -1.000000   120.000000    -0.577350     0.577350     0.577350     0.250000     0.250000     0.000000
   23     1.000000   120.000000    -0.577350     0.577350    -0.577350     0.250000     0.250000     0.000000
   24    -1.000000   120.000000    -0.577350     0.577350    -0.577350     0.250000     0.250000     0.000000
   25     1.000000    90.000000     0.000000     0.000000     1.000000     0.250000     0.500000    -0.250000
   26    -1.000000    90.000000     0.000000     0.000000     1.000000     0.250000     0.500000    -0.250000
   27     1.000000    90.000000    -1.000000     0.000000     0.000000     0.250000     0.500000    -0.250000
   28    -1.000000    90.000000    -1.000000     0.000000     0.000000     0.250000     0.500000    -0.250000
   29     1.000000   180.000000     0.707107     0.000000     0.707107     0.250000     0.500000    -0.250000
   30    -1.000000   180.000000     0.707107     0.000000     0.707107     0.250000     0.500000    -0.250000
   31     1.000000   120.000000     0.577350    -0.577350     0.577350     0.500000     0.250000    -0.250000
   32    -1.000000   120.000000     0.577350    -0.577350     0.577350     0.500000     0.250000    -0.250000
   33     1.000000   120.000000    -0.577350    -0.577350     0.577350     0.500000     0.250000    -0.250000
   34    -1.000000   120.000000    -0.577350    -0.577350     0.577350     0.500000     0.250000    -0.250000
   35     1.000000   180.000000     1.000000     0.000000     0.000000     0.500000     0.250000    -0.250000
   36    -1.000000   180.000000     1.000000     0.000000     0.000000     0.500000     0.250000    -0.250000
   37     1.000000    90.000000     0.000000    -1.000000     0.000000     0.250000     0.250000     0.000000
   38    -1.000000    90.000000     0.000000    -1.000000     0.000000     0.250000     0.250000     0.000000
   39     1.000000   180.000000     0.707107     0.707107     0.000000     0.250000     0.250000     0.000000
   40    -1.000000   180.000000     0.707107     0.707107     0.000000     0.250000     0.250000     0.000000
   41     1.000000    90.000000     1.000000     0.000000     0.000000     0.250000     0.250000     0.000000
   42    -1.000000    90.000000     1.000000     0.000000     0.000000     0.250000     0.250000     0.000000
   43     1.000000   120.000000     0.577350    -0.577350    -0.577350     0.250000     0.500000    -0.250000
   44    -1.000000   120.000000     0.577350    -0.577350    -0.577350     0.250000     0.500000    -0.250000
   45     1.000000   180.000000     0.000000     1.000000     0.000000     0.250000     0.500000    -0.250000
   46    -1.000000   180.000000     0.000000     1.000000     0.000000     0.250000     0.500000    -0.250000
   47     1.000000   120.000000     0.577350     0.577350    -0.577350     0.250000     0.500000    -0.250000
   48    -1.000000   120.000000     0.577350     0.577350    -0.577350     0.250000     0.500000    -0.250000

 Subroutine IBZKPT returns following result:

 Found      1 irreducible k-points:

 Following reciprocal coordinates:
            Coordinates               Weight
  0.250000  0.250000  0.250000      8.000000

 Following cartesian coordinates:
            Coordinates               Weight
  0.045872  0.045872  0.045872      8.000000

 I would recommend the setting:
   dimension x,y,z NGX =    31 NGY =   31 NGZ =   31
 SYSTEM =  unknown system
 POSCAR =   Si

 Startparameter for this run:
   NWRITE =      2    write-flag & timer
   PREC   = accura    normal or accurate (medium, high low for compatibility)
   ISTART =      0    job   : 0-new  1-cont  2-samecut
   ICHARG =      2    charge: 1-file 2-atom 10-const
   ISPIN  =      1    spin polarized calculation?
   LNONCOLLINEAR =      F non collinear calculations
   LSORBIT =      F    spin-orbit coupling
   INIWAV =      1    electr: 0-lowe 1-rand  2-diag
   LASPH  =      F    aspherical Exc in radial PAW
   METAGGA=      F    non-selfconsistent MetaGGA calc.

 Electronic Relaxation 1
   ENCUT  =  300.0 eV  22.05 Ry    4.70 a.u.   7.70  7.70  7.70*2*pi/ulx,y,z
   ENINI  =  300.0     initial cutoff
   ENAUG  =  322.1 eV  augmentation charge cutoff
   NELM   =    100;   NELMIN=  5; NELMDL= -5     # of ELM steps
   EDIFF  = 0.1E-07   stopping-criterion for ELM
   LREAL  =      F    real-space projection
   NLSPLINE    = F    spline interpolate recip. space projectors
   LCOMPAT=      F    compatible to vasp.4.4
   GGA_COMPAT  = T    GGA compatible to vasp.4.4-vasp.4.6
   LMAXPAW     = -100 max onsite density
   LMAXMIX     =    2 max onsite mixed and CHGCAR
   VOSKOWN=      0    Vosko Wilk Nusair interpolation
   ROPT   =    0.00000
 Ionic relaxation
   EDIFFG = -.1E-07   stopping-criterion for IOM
   NSW    =    100    number of steps for IOM
   NBLOCK =      1;   KBLOCK =    100    inner block; outer block
   IBRION =      1    ionic relax: 0-MD 1-quasi-New 2-CG
   NFREE  =      0    steps in history (QN), initial steepest desc. (CG)
   ISIF   =      3    stress and relaxation
   IWAVPR =     11    prediction:  0-non 1-charg 2-wave 3-comb
   ISYM   =      2    0-nonsym 1-usesym 2-fastsym
   LCORR  =      T    Harris-Foulkes like correction to forces

   POTIM  = 0.5000    time-step for ionic-motion
[...]

 position of ions in cartesian coordinates  (Angst):
   4.76875000  4.76875000  4.76875000
   4.76875000  2.04375000  2.04375000
   2.04375000  4.76875000  2.04375000
   2.04375000  2.04375000  4.76875000
   0.68125000  0.68125000  0.68125000
   0.68125000  3.40625000  3.40625000
   3.40625000  0.68125000  3.40625000
   3.40625000  3.40625000  0.68125000

 k-point  1 :   0.2500 0.2500 0.2500  plane waves:    1914

 maximum and minimum number of plane-waves per node :      1914     1914

 maximum number of plane-waves:      1914
 maximum index in each direction:
   IXMAX=    7   IYMAX=    7   IZMAX=    7
   IXMIN=   -7   IYMIN=   -7   IZMIN=   -7

 NGX is ok and might be reduce to  30
 NGY is ok and might be reduce to  30
 NGZ is ok and might be reduce to  30

 serial   3D FFT for wavefunctions
 parallel 3D FFT for charge:
    minimum data exchange during FFTs selected (reduces bandwidth)

 Broyden mixing: mesh for mixing (old mesh)
   NGX = 15   NGY = 15   NGZ = 15
  (NGX  = 64   NGY  = 64   NGZ  = 64)
  gives a total of   3375 points

 initial charge density was supplied:
 charge density of overlapping atoms calculated
 number of electron      32.0000000 magnetization
 keeping initial charge density in first step

 Maximum index for augmentation-charges        52515 (set IRDMAX)

 First call to EWALD:  gamma=   0.325
 Maximum number of real-space cells 3x 3x 3
 Maximum number of reciprocal cells 3x 3x 3

 FEWALD executed in parallel

----------------------------------------- Iteration    1(   1)  ---------------------------------------

 eigenvalue-minimisations  :    42
 total energy-change (2. order) : 0.3909812E+02  (-0.8743822E+03)
 number of electron      32.0000000 magnetization
 augmentation part       32.0000000 magnetization

 Free energy of the ion-electron system (eV)
  alpha Z        PSCENC =        13.30898611
  Ewald energy   TEWEN  =      -910.89907151
  -1/2 Hartree   DENC   =       -44.66892703
  -exchange  EXHF       =         0.00000000
  -V(xc)+E(xc)   XCENC  =       -69.98053156
  PAW double counting   =       699.82828177     -561.52230517
  entropy T*S    EENTRO =         0.00000000
  eigenvalues    EBANDS =        92.43942793
  atomic energy  EATOM  =       820.59225628
  free energy    TOTEN  =        39.09811681 eV

  energy without entropy =       39.09811681  energy(sigma->0) =       39.09811681

[...]

 eigenvalue-minimisations  :    60
 total energy-change (2. order) :-0.8244442E+02  (-0.7663743E+02)
 number of electron      32.0000000 magnetization
 augmentation part       32.0000000 magnetization

[...]

 Broyden mixing:
  rms(total) = 0.10170E+01    rms(broyden)= 0.10170E+01
  rms(prec ) = 0.13957E+01
  weight for this iteration     100.00

[...]

 eigenvalues of (default mixing * dielectric matrix)
  average eigenvalue GAMMA=   2.5250
  2.5250

[...]

 average (electrostatic) potential at core
  the test charge radii are     0.9892
  (the norm of the test charge is              1.0000)
       1 -83.1002       2 -83.1002       3 -83.1002       4 -83.1002       5 -83.1002
       6 -83.1002       7 -83.1002       8 -83.1002

 E-fermi :   5.0408     XC(G=0):  -9.4939     alpha+bet :-11.8531

 k-point   1 :       0.2500    0.2500    0.2500
  band No.  band energies     occupation
      1      -5.4089      2.00000
      2      -3.4969      2.00000
      3      -3.4969      2.00000
      4      -3.4969      2.00000
      5      -0.6570      2.00000
      6      -0.6570      2.00000
      7      -0.6570      2.00000
      8       1.7823      2.00000
      9       2.1658      2.00000
     10       2.1658      2.00000
     11       2.1658      2.00000
     12       3.5128      2.00000
     13       3.5128      2.00000
     14       3.5128      2.00000
     15       4.9607      2.00000
     16       4.9607      2.00000
     17       7.1322      0.00000
     18       7.1322      0.00000
     19       7.1322      0.00000
     20       7.6395      0.00000
     21       9.1603      0.00000

 soft charge-density along one line, spin component           1
         0         1         2         3         4         5         6         7         8         9
 total charge-density along one line

------------------------ aborting loop because EDIFF is reached ----------------------------------------

  FORCE on cell =-STRESS in cart. coord.  units (eV):
  Direction    XX          YY          ZZ          XY          YZ          ZX
  Alpha Z    13.30899    13.30899    13.30899
  Ewald    -303.63354  -303.63354  -303.63354     0.00000     0.00000     0.00000
  Hartree    20.00636    20.00636    20.00636     0.00000     0.00000     0.00000
  E(xc)    -102.12510  -102.12510  -102.12510     0.00000     0.00000     0.00000
  Local    -117.45772  -117.45772  -117.45772     0.00000     0.00000     0.00000
  n-local   308.45332   308.45332   308.45332    -6.18500    -6.18500    -6.18500
  augment   -45.45462   -45.45462   -45.45462     0.00000     0.00000     0.00000
  Kinetic   226.45864   226.45864   226.45864   -10.50602   -10.50602   -10.50602
  Fock        0.00000     0.00000     0.00000     0.00000     0.00000     0.00000
  Total      -0.44368    -0.44368    -0.44368     0.00000     0.00000     0.00000
  in kB      -4.39123    -4.39123    -4.39123     0.00000     0.00000     0.00000

 VOLUME and BASIS-vectors are now :
  energy-cutoff  :      300.00
  volume of cell :      161.88
      direct lattice vectors                 reciprocal lattice vectors
     5.450000000  0.000000000  0.000000000     0.183486239  0.000000000  0.000000000
     0.000000000  5.450000000  0.000000000     0.000000000  0.183486239  0.000000000
     0.000000000  0.000000000  5.450000000     0.000000000  0.000000000  0.183486239

[...]

 FORCES acting on ions
    electron-ion (+dipol)            ewald-force                    non-local-force                 convergence-correction
   -.291E-13 0.214E-12 -.253E-12   -.178E-13 -.107E-13 -.355E-14   -.312E-16 -.201E-15 -.236E-15   -.731E-15 -.123E-14 0.108E-14
   -.213E-13 0.408E-12 -.110E-12   -.249E-13 -.107E-13 -.355E-14   -.330E-15 0.139E-16 -.125E-15   -.792E-15 -.355E-15 0.170E-14
   -.253E-13 0.261E-12 0.616E-13   -.284E-13 -.107E-13 -.355E-14   0.236E-15 0.278E-16 0.416E-16   -.206E-14 -.120E-14 0.192E-14
   -.216E-13 0.264E-13 0.284E-12   -.284E-13 -.107E-13 -.355E-14   0.135E-15 -.139E-16 -.222E-15   -.194E-14 -.309E-15 0.119E-14
   -.130E-13 0.338E-13 0.487E-13   0.258E-13 0.995E-14 0.397E-14   -.158E-15 0.354E-15 0.258E-15   0.834E-15 0.348E-15 -.653E-15
   -.135E-13 0.188E-13 0.425E-13   0.257E-13 0.116E-13 0.385E-14   0.850E-16 0.416E-15 0.139E-15   0.899E-15 0.183E-14 -.260E-14
   -.216E-13 0.112E-12 -.765E-13   0.204E-13 0.977E-14 0.384E-14   0.470E-15 0.146E-15 0.104E-15   0.230E-14 0.259E-15 -.263E-14
   -.228E-13 -.844E-13 0.999E-13   0.203E-13 0.114E-13 0.252E-14   0.102E-15 0.278E-15 0.156E-16   0.235E-14 0.158E-14 -.734E-15
   -.168E-12 0.989E-12 0.971E-13   -.724E-14 0.141E-15 -.286E-16   0.510E-15 0.102E-14 -.243E-16   0.856E-15 0.920E-15 -.735E-15

 POSITION                                       TOTAL-FORCE (eV/Angst)
      4.76875      4.76875      4.76875         0.000000      0.000000      0.000000
      4.76875      2.04375      2.04375         0.000000      0.000000      0.000000
      2.04375      4.76875      2.04375         0.000000      0.000000      0.000000
      2.04375      2.04375      4.76875         0.000000      0.000000      0.000000
      0.68125      0.68125      0.68125         0.000000      0.000000      0.000000
      0.68125      3.40625      3.40625         0.000000      0.000000      0.000000
      3.40625      0.68125      3.40625         0.000000      0.000000      0.000000
      3.40625      3.40625      0.68125         0.000000      0.000000      0.000000
    total drift:                                0.000000      0.000000      0.000000

  FREE ENERGIE OF THE ION-ELECTRON SYSTEM (eV)
  free  energy   TOTEN  =       -45.26914972 eV

  energy  without entropy=      -45.26914972  energy(sigma->0) =      -45.26914972

 Quasi-Newton relaxation of ions (Broydens 2nd method)
  g(Force)  = 0.489E-59   g(Stress)= 0.356E-02

 Reset! Starting new Quasi-Newton update for ions

[...]

 d Force = 0.0000000E+00[ 0.000E+00, 0.000E+00]  d Energy = 0.5313663E-03-0.531E-03
 d Force = 0.0000000E+00[ 0.000E+00, 0.000E+00]  d Ewald  = 0.2443658E+01-0.244E+01

[...]

 retain information from N=  1 steps
 eigenvalues of (default step * inverse Hessian matrix)
  average eigenvalue of G=   0.5814
 eigenvalue spectrum of G is  0.5814

[...]

 d Force = 0.0000000E+00[ 0.000E+00, 0.000E+00]  d Energy = 0.5251643E-03-0.525E-03
 d Force = 0.0000000E+00[ 0.000E+00, 0.000E+00]  d Ewald  =-0.1024539E+01 0.102E+01

[...]

 eigenvalue-minimisations  :    21
 total energy-change (2. order) : 0.3592504E-10  ( 0.1569855E-12)
 number of electron      31.9999999 magnetization
 augmentation part       -1.8079563 magnetization

[...]

 eigenvalue-minimisations  :    21
 total energy-change (2. order) : 0.1641638E-09  ( 0.7576162E-12)
 number of electron      31.9999999 magnetization
 augmentation part       -1.8079563 magnetization

[...]

 d Force = 0.0000000E+00[ 0.000E+00, 0.000E+00]  d Energy =-0.9922587E-09 0.992E-09
 d Force = 0.0000000E+00[ 0.000E+00, 0.000E+00]  d Ewald  =-0.5492860E-04 0.549E-04

[...]

 FEWALD executed in parallel

[...]

 eigenvalue-minimisations  :    21
 total energy-change (2. order) :-0.1732587E-09  (-0.2344791E-12)
 number of electron      31.9999999 magnetization
 augmentation part       -1.8079563 magnetization

[...]

 eigenvalue-minimisations  :    21
 total energy-change (2. order) :-0.3628884E-09  ( 0.5591083E-12)
 number of electron      31.9999999 magnetization
 augmentation part       -1.8079563 magnetization

 Broyden mixing:
  rms(total) = 0.22821E-08    rms(broyden)= 0.22821E-08
  rms(prec ) = 0.24824E-08
  weight for this iteration     100.00

 eigenvalues of (default mixing * dielectric matrix)
  average eigenvalue GAMMA=   2.2627
  2.4440  1.0555  3.2887

[...]

----------------------------------------- Iteration    6(   5)  ---------------------------------------

 eigenvalue-minimisations  :    21
 total energy-change (2. order) : 0.1618901E-09  (-0.2250866E-11)
 number of electron      31.9999999 magnetization
 augmentation part       -1.8079563 magnetization

 Free energy of the ion-electron system (eV)
  alpha Z        PSCENC =        13.37150668
  Ewald energy   TEWEN  =      -912.32319664
  -1/2 Hartree   DENC   =       -59.79996223
  -exchange  EXHF       =         0.00000000
  -V(xc)+E(xc)   XCENC  =       -67.35086331
  PAW double counting   =      3625.31935883    -3487.89284681
  entropy T*S    EENTRO =         0.00000000
  eigenvalues    EBANDS =        22.81354087
  atomic energy  EATOM  =       820.59225628
  free energy    TOTEN  =       -45.27020633 eV

  energy without entropy =      -45.27020633  energy(sigma->0) =      -45.27020633

 average (electrostatic) potential at core
  the test charge radii are     0.9892
  (the norm of the test charge is              1.0000)
       1 -83.0478       2 -83.0478       3 -83.0478       4 -83.0478       5 -83.0478
       6 -83.0478       7 -83.0478       8 -83.0478

 E-fermi :   5.0825     XC(G=0):  -9.5118     alpha+bet :-11.9088

 k-point   1 :       0.2500    0.2500    0.2500
  band No.  band energies     occupation
      1      -5.3906      2.00000
      2      -3.4698      2.00000
      3      -3.4698      2.00000
      4      -3.4698      2.00000
      5      -0.6226      2.00000
      6      -0.6226      2.00000
      7      -0.6226      2.00000
      8       1.8208      2.00000
      9       2.1977      2.00000
     10       2.1977      2.00000
     11       2.1977      2.00000
     12       3.5504      2.00000
     13       3.5504      2.00000
     14       3.5504      2.00000
     15       5.0048      2.00000
     16       5.0048      2.00000
     17       7.1745      0.00000
     18       7.1745      0.00000
     19       7.1745      0.00000
     20       7.7028      0.00000
     21       9.2111      0.00000

 soft charge-density along one line, spin component           1
         0         1         2         3         4         5         6         7         8         9
 total charge-density along one line

------------------------ aborting loop because EDIFF is reached ----------------------------------------

  FORCE on cell =-STRESS in cart. coord.  units (eV):
  Direction    XX          YY          ZZ          XY          YZ          ZX
  Alpha Z    13.37151    13.37151    13.37151
  Ewald    -304.10825  -304.10825  -304.10825     0.00000     0.00000     0.00000
  Hartree    19.93332    19.93332    19.93332     0.00000     0.00000     0.00000
  E(xc)    -102.23793  -102.23793  -102.23793     0.00000     0.00000     0.00000
  Local    -117.20015  -117.20015  -117.20015     0.00000     0.00000     0.00000
  n-local   308.80675   308.80675   308.80675    -6.20485    -6.20485    -6.20485
  augment   -45.46249   -45.46249   -45.46249     0.00000     0.00000     0.00000
  Kinetic   226.89724   226.89724   226.89724   -10.51374   -10.51374   -10.51374
  Fock        0.00000     0.00000     0.00000     0.00000     0.00000     0.00000
  Total       0.00000     0.00000     0.00000     0.00000     0.00000     0.00000
  in kB       0.00000     0.00000     0.00000     0.00000     0.00000     0.00000

 VOLUME and BASIS-vectors are now :
  energy-cutoff  :      300.00
  volume of cell :      161.12
      direct lattice vectors                 reciprocal lattice vectors
     5.441492618  0.000000000  0.000000000     0.183773106  0.000000000  0.000000000
     0.000000000  5.441492618  0.000000000     0.000000000  0.183773106  0.000000000
     0.000000000  0.000000000  5.441492618     0.000000000  0.000000000  0.183773106

  length of vectors
     5.441492618  5.441492618  5.441492618     0.183773106  0.183773106  0.183773106

 FORCES acting on ions
    electron-ion (+dipol)            ewald-force                    non-local-force                 convergence-correction
   -.205E-13 0.212E-12 -.258E-12   -.142E-13 -.355E-14 -.355E-14   -.359E-15 0.451E-16 -.418E-15   0.786E-16 0.541E-16 -.168E-14
   -.229E-13 0.411E-12 -.115E-12   -.142E-13 -.355E-14 -.355E-14   0.726E-16 -.520E-17 -.456E-15   0.571E-16 -.178E-15 -.155E-14
   -.143E-13 0.258E-12 0.641E-13   -.142E-13 -.355E-14 -.355E-14   -.191E-15 -.113E-15 -.238E-15   -.216E-15 -.711E-15 -.117E-14
   -.208E-13 0.280E-13 0.283E-12   -.142E-13 -.355E-14 -.355E-14   0.778E-16 0.267E-15 -.210E-15   -.303E-15 -.940E-15 -.137E-14
   -.177E-13 0.324E-13 0.478E-13   0.142E-13 0.274E-14 0.301E-14   -.125E-15 -.113E-15 0.201E-15   0.140E-14 0.242E-15 0.109E-14
   -.246E-13 0.158E-13 0.463E-13   0.142E-13 0.372E-14 0.391E-14   0.610E-16 -.255E-15 0.451E-15   0.140E-14 0.265E-14 -.102E-14
   -.152E-13 0.111E-12 -.752E-13   0.143E-13 0.339E-14 0.390E-14   0.103E-15 -.746E-16 0.513E-15   -.139E-14 -.156E-15 -.275E-15
   -.277E-13 -.900E-13 0.101E-12   0.143E-13 0.437E-14 0.360E-14   -.553E-16 0.503E-16 0.354E-15   -.136E-14 0.231E-14 0.196E-14
   -.164E-12 0.979E-12 0.944E-13   0.804E-16 0.722E-17 0.206E-15   -.416E-15 -.198E-15 0.198E-15   -.338E-15 0.327E-14 -.401E-14

 POSITION                                       TOTAL-FORCE (eV/Angst)
      4.76131      4.76131      4.76131         0.000000      0.000000      0.000000
      4.76131      2.04056      2.04056         0.000000      0.000000      0.000000
      2.04056      4.76131      2.04056         0.000000      0.000000      0.000000
      2.04056      2.04056      4.76131         0.000000      0.000000      0.000000
      0.68019      0.68019      0.68019         0.000000      0.000000      0.000000
      0.68019      3.40093      3.40093         0.000000      0.000000      0.000000
      3.40093      0.68019      3.40093         0.000000      0.000000      0.000000
      3.40093      3.40093      0.68019         0.000000      0.000000      0.000000
    total drift:                                0.000000      0.000000      0.000000

  FREE ENERGIE OF THE ION-ELECTRON SYSTEM (eV)
  free  energy   TOTEN  =       -45.27020633 eV

  energy  without entropy=      -45.27020633  energy(sigma->0) =      -45.27020633

 d Force = 0.0000000E+00[ 0.000E+00, 0.000E+00]  d Energy = 0.3183231E-11-0.318E-11
 d Force = 0.0000000E+00[ 0.000E+00, 0.000E+00]  d Ewald  = 0.2085196E-05-0.209E-05

 Quasi-Newton relaxation of ions (Broydens 2nd method)
  g(Force)  = 0.617E-59   g(Stress)= 0.919E-19

 retain information from N=  1 steps
 eigenvalues of (default step * inverse Hessian matrix)
  average eigenvalue of G=   0.5523
 eigenvalue spectrum of G is  0.5523

 reached required accuracy - stopping structural energy minimisation